data/mip_solutions/furman_sahinidis/transportation/10sp1_cplex.sol
Elapsed time: 0.512392997742
Nodes explored: 627
Upper bound: 10.0
Lower bound: 10.0
y[0,2]=1
y[0,3]=1
y[1,0]=1
y[1,1]=1
y[2,0]=1
y[2,2]=1
y[2,4]=1
y[3,3]=1
y[4,2]=1
y[4,5]=1
q[0,4,2,4]=833700.0
q[0,4,3,4]=333200.0
q[0,5,2,5]=225770.0
q[0,5,2,7]=220515.0
q[0,5,2,8]=220515.0
q[0,6,2,6]=166700.0
q[1,1,0,4]=146700.0
q[1,1,0,5]=578000.0
q[1,1,0,7]=63770.0
q[1,1,1,1]=11530.0
q[1,2,0,4]=423500.0
q[1,2,1,2]=576500.0
q[1,3,0,3]=144500.0
q[1,3,1,3]=807100.0
q[1,3,1,4]=448400.0
q[1,4,0,4]=441300.0
q[1,4,1,4]=358700.0
q[2,2,2,2]=800000.0
q[2,2,4,2]=527000.0
q[2,2,4,3]=73000.0
q[2,3,2,3]=188500.0
q[2,3,4,3]=1771500.0
q[2,4,0,6]=115500.0
q[2,4,4,4]=1844500.0
q[2,5,2,5]=66000.0
q[2,5,4,5]=1054000.0
q[2,6,0,6]=173500.0
q[2,6,2,6]=153300.0
q[2,6,2,7]=116600.0
q[2,6,2,8]=116600.0
q[2,7,0,7]=514230.0
q[2,7,2,7]=302885.0
q[2,7,2,8]=302885.0
q[3,0,3,3]=60200.0
q[3,0,3,4]=147000.0
q[3,0,3,5]=417200.0
q[3,0,3,6]=327600.0
q[3,1,3,3]=60200.0
q[3,1,3,4]=147000.0
q[3,1,3,5]=417200.0
q[3,1,3,6]=327600.0
q[3,2,3,3]=1190000.0
q[3,3,3,4]=1666000.0
q[3,4,3,5]=476000.0
q[4,3,2,3]=931500.0
q[4,3,2,4]=286300.0
q[4,3,2,5]=348230.0
q[4,3,5,8]=785970.0
q[4,4,5,8]=2352000.0
q[4,5,5,8]=1344000.0
q[4,6,5,8]=672000.0
q[4,7,5,8]=1344000.0
